  9	63
 14
  0	 14	 10	 77	 59	 26	 73	 13	122	 89	 76	 22	 85	127	
 22
  0	 51	 50	114	 42	 43	113	106	  5	105	 36	 99	 37	 68	 25	  8	 71	 88	 56	100	119	127	
 18
  0	 47	 45	110	 23	108	  9	 72	 38	 33	 96	 86	 12	 62	101	125	 75	127	
 10
  0	 41	 54	104	 30	  2	 93	 65	117	127	
 12
  0	 27	 29	 32	 90	 95	 92	 39	 49	102	112	127	
 18
  0	 19	 46	 48	109	 82	111	 60	 61	  4	123	 67	 31	 28	124	 94	 91	127	
 18
  0	 24	 58	 87	121	 44	 16	 17	107	 34	 97	 52	 79	 80	 21	115	 84	127	
 18
  0	 18	 81	 15	 78	 57	 20	 53	120	 83	 35	116	 98	  6	  3	 69	 66	127	
 14
  0	  7	 11	  1	 70	 63	 74	 40	126	 55	 64	103	118	127	
